webassembly/ejemplos_dzn/folder7_json_68.dzn
TERM = { '.', 's(2)', 's(4)', 'in_1', 'in_6', 'in_2', 'in_4', 'in_3', 'in_8', 's(1)', 's(0)', 'in_7', 'in_5', 's(3)', 'in_0'};
null = '.';
s = 7;
n = 14;
ndeps = 2;
max_registers_sz = 3;
NR = 0;
registers = [| |];
dependencies = [|'i32.store8_2', 'call[function_index(0)]_3', |'call[function_index(0)]_3', 'i32.load16_u_6'|];
GET_ENUM = { GET1, GET2, GET3};
SET_ENUM = { SET1, SET2, SET3};
TEE_ENUM = { TEE1, TEE2, TEE3};
N = 7;
OP = { 'i32.sub_0', 'call[function_index(0)]_3', 'i32.add_0', 'i32.add_1', 'i32.store8_2', 'i32.const_0', 'i32.load16_u_6' };
in_ops = [2, 3, 2, 2, 2, 0, 1 ];
out_ops = [1, 0, 1, 1, 0, 1, 1 ];
in1 = ['in_7', 'in_4', 'in_0', 's(0)', 's(1)', '.', 's(4)' ];
in2 = ['in_8', 'in_5', 'in_1', 'in_2', 'in_3', '.', '.' ];
in3 = ['.', 'in_6', '.', '.', '.', '.', '.' ];
out1 = ['s(2)', '.', 's(0)', 's(1)', '.', 's(4)', 's(3)' ];
out2 = ['.', '.', '.', '.', '.', '.', '.' ];
out3 = ['.', '.', '.', '.', '.', '.', '.' ];
comm = [false, false, true, true, false, false, false ];
gas = [1, 1, 1, 1, 1, 1, 1 ];
sz = [1, 1, 1, 1, 1, 1, 1 ];
stor = [false, true, false, false, true, false, false ];
lb = [ 1, 1, 1, 1, 1, 1, 1 ];
ub = [ 7, 7, 7, 7, 7, 7, 7 ];
startstack = [ 'in_0', 'in_1', 'in_2', 'in_3', 'in_4', 'in_5', 'in_6', 'in_7', 'in_8', null, null, null, null, null ];
endstack = [ 's(3)', 's(2)', null, null, null, null, null, null, null, null, null, null, null, null ];
