webassembly/ejemplos_results/7/folder7_json_68.txt
value = 7;
fgas = [1, 1, 1, 1, 1, 1, 1];
fsize = [1, 1, 1, 1, 1, 1, 1];
states = 
[|   in_0,   in_1, in_2, in_3, in_4, in_5, in_6, in_7, in_8, '.', '.', '.', '.',  '.'
 | 's(0)',   in_2, in_3, in_4, in_5, in_6, in_7, in_8,  '.', '.', '.', '.', '.',  '.'
 | 's(1)',   in_3, in_4, in_5, in_6, in_7, in_8,  '.',  '.', '.', '.', '.', '.',  '.'
 |   in_4,   in_5, in_6, in_7, in_8,  '.',  '.',  '.',  '.', '.', '.', '.', '.',  '.'
 |   in_7,   in_8,  '.',  '.',  '.',  '.',  '.',  '.',  '.', '.', '.', '.', '.',  '.'
 | 's(2)',    '.',  '.',  '.',  '.',  '.',  '.',  '.',  '.', '.', '.', '.', '.', in_0
 | 's(4)', 's(2)',  '.',  '.',  '.',  '.',  '.',  '.',  '.', '.', '.', '.', '.',  '.'
 | 's(3)', 's(2)',  '.',  '.',  '.',  '.',  '.',  '.',  '.', '.', '.', '.', '.',  '.'
 |];
register_states = 
[| '.', '.', '.'
 | '.', '.', '.'
 | '.', '.', '.'
 | '.', '.', '.'
 | '.', '.', '.'
 | '.', '.', '.'
 | '.', '.', '.'
 | '.', '.', '.'
 |];
program = [O('i32.add_0'), O('i32.add_1'), O('i32.store8_2'), O('call[function_index(0)]_3'), O('i32.sub_0'), O('i32.const_0'), O('i32.load16_u_6')];
% time elapsed: 0.11 s
----------
==========
% time elapsed: 0.11 s
% [value > 6]
